2627940
222,219,190,41,121,180,83,49,189,97,198,36,84,46,116,179,75,28,94,151,35,37,196,39,5,178,140,118,74,31,183,23,201,111,3,60,200,149,172,20,135,68,205,169,55,139,16,167,98,126,194,12,146,21,217,228,109,142,38,120,19,11,25,2,70,57,197,119,160,73,206,195,211,96,78,102,40,215,6,230,175,53,92,100,99,18,56,54,105,216,202,24,66,141,106,128,138,72,7,67,147,95,212,203,88,153,224,4,170,150,171,186,187,168,52,185,22,162,43,107,44,223,134,165,161,184,133,112,155,166,33,129,14,45,114,113,157,199,79,15,64,104,13,30,164,188,61,213,144,229,50,27,81,156,209,51,148,82,225,85,63,124,8,191,152,210,91,34,108,87,62,130,192,117,32,47,69,1,89,17,86,76,9,154,115,90,132,143,214,176,110,181,80,221,59,48,174,42,177,125,71,226,131,182,158,93,204,26,101,145,227,137,218,122,163,207,127,159,220,193,123,29,208,65,10,58,173,103,136,77